c colouring generated by benchmark framework
p edge 275 274
v 1 2
v 2 0
v 3 2
v 4 0
v 5 0
v 6 2
v 7 0
v 8 1
v 9 0
v 10 0
v 11 1
v 12 1
v 13 2
v 14 0
v 15 2
v 16 2
v 17 1
v 18 0
v 19 2
v 20 1
v 21 1
v 22 0
v 23 2
v 24 0
v 25 2
v 26 0
v 27 0
v 28 1
v 29 2
v 30 0
v 31 0
v 32 0
v 33 1
v 34 0
v 35 2
v 36 0
v 37 2
v 38 1
v 39 0
v 40 2
v 41 0
v 42 0
v 43 0
v 44 0
v 45 0
v 46 2
v 47 0
v 48 2
v 49 2
v 50 2
v 51 1
v 52 1
v 53 0
v 54 2
v 55 1
v 56 0
v 57 1
v 58 2
v 59 0
v 60 0
v 61 2
v 62 1
v 63 0
v 64 0
v 65 0
v 66 1
v 67 0
v 68 0
v 69 1
v 70 2
v 71 1
v 72 0
v 73 2
v 74 1
v 75 2
v 76 2
v 77 2
v 78 1
v 79 2
v 80 0
v 81 1
v 82 0
v 83 0
v 84 2
v 85 1
v 86 0
v 87 2
v 88 2
v 89 0
v 90 1
v 91 2
v 92 0
v 93 1
v 94 1
v 95 1
v 96 0
v 97 2
v 98 2
v 99 0
v 100 1
v 101 0
v 102 1
v 103 0
v 104 1
v 105 2
v 106 1
v 107 1
v 108 0
v 109 1
v 110 1
v 111 0
v 112 1
v 113 1
v 114 1
v 115 0
v 116 2
v 117 1
v 118 2
v 119 0
v 120 1
v 121 1
v 122 1
v 123 0
v 124 2
v 125 1
v 126 1
v 127 2
v 128 0
v 129 1
v 130 0
v 131 1
v 132 0
v 133 1
v 134 0
v 135 0
v 136 0
v 137 1
v 138 0
v 139 2
v 140 2
v 141 0
v 142 1
v 143 2
v 144 0
v 145 1
v 146 1
v 147 2
v 148 2
v 149 0
v 150 2
v 151 0
v 152 2
v 153 0
v 154 1
v 155 1
v 156 0
v 157 1
v 158 0
v 159 1
v 160 1
v 161 1
v 162 0
v 163 1
v 164 1
v 165 0
v 166 0
v 167 1
v 168 0
v 169 1
v 170 1
v 171 0
v 172 0
v 173 0
v 174 2
v 175 0
v 176 0
v 177 1
v 178 0
v 179 1
v 180 0
v 181 2
v 182 1
v 183 0
v 184 0
v 185 0
v 186 0
v 187 0
v 188 2
v 189 2
v 190 1
v 191 0
v 192 1
v 193 1
v 194 1
v 195 2
v 196 1
v 197 0
v 198 0
v 199 2
v 200 1
v 201 0
v 202 1
v 203 0
v 204 0
v 205 2
v 206 1
v 207 2
v 208 2
v 209 1
v 210 1
v 211 0
v 212 0
v 213 1
v 214 2
v 215 1
v 216 1
v 217 1
v 218 1
v 219 0
v 220 1
v 221 2
v 222 0
v 223 1
v 224 1
v 225 1
v 226 0
v 227 1
v 228 1
v 229 1
v 230 1
v 231 1
v 232 0
v 233 2
v 234 1
v 235 1
v 236 1
v 237 0
v 238 1
v 239 0
v 240 0
v 241 2
v 242 2
v 243 0
v 244 2
v 245 0
v 246 0
v 247 1
v 248 2
v 249 0
v 250 0
v 251 2
v 252 0
v 253 0
v 254 2
v 255 0
v 256 1
v 257 2
v 258 0
v 259 1
v 260 2
v 261 1
v 262 0
v 263 0
v 264 2
v 265 2
v 266 0
v 267 0
v 268 2
v 269 1
v 270 0
v 271 1
v 272 0
v 273 2
v 274 1
v 275 0
